100 10
334 788
860 755
491 855
540 873
603 307
311 571
753 432
676 464
249 396
454 363
498 796
305 412
415 592
388 449
444 665
542 317
756 537
239 647
82 396
229 897
631 298
302 841
689 401
701 507
723 393
373 510
734 604
706 708
480 414
298 270
716 658
471 606
715 499
452 827
778 767
468 903
852 608
305 362
55 843
407 470
607 227
680 817
833 620
205 371
470 633
560 869
776 590
629 765
456 503
796 649
502 347
181 732
622 407
844 797
182 623
423 486
778 304
385 660
510 599
760 580
625 198
665 260
452 776
522 266
565 425
528 486
279 481
359 584
379 686
366 486
787 623
463 929
222 709
480 929
672 471
499 193
530 595
630 390
570 687
748 78
511 610
801 660
587 534
662 583
842 796
447 409
418 726
627 684
785 619
478 794
671 320
793 172
532 171
584 536
511 532
472 247
662 552
557 392
679 209
407 254
